SLURM_JOB_ID: 55294363
SLURM_JOB_USER: vsc34888
SLURM_JOB_ACCOUNT: lp_elect_gen_modeling
SLURM_JOB_NAME: 9n_full_MILP_DC
SLURM_CLUSTER_NAME: genius
SLURM_JOB_PARTITION: batch
SLURM_NNODES: 1
SLURM_NODELIST: r23i27n01
SLURM_JOB_CPUS_PER_NODE: 36
Date: Wed Oct 11 15:42:15 CEST 2023
Walltime: 01-00:00:00
========================================================================
Activation OK
Starting runs
/lustre1/scratch/348/vsc34888/JointResearch/05.Models/06.Benchmarking/A.The_full_year_MILP/oSN_Main_DCOPF.py:617: FutureWarning: The default dtype for empty Series will be 'object' instead of 'float64' in a future version. Specify a dtype explicitly to silence this warning.
  pLinearOperCost.update (pd.Series([0 for gg in model.gg if pLinearOperCost [gg] < pEpsilon], index=[gg for gg in model.gg if pLinearOperCost [gg] < pEpsilon]))
/lustre1/scratch/348/vsc34888/JointResearch/05.Models/06.Benchmarking/A.The_full_year_MILP/oSN_Main_DCOPF.py:618: FutureWarning: The default dtype for empty Series will be 'object' instead of 'float64' in a future version. Specify a dtype explicitly to silence this warning.
  pLinearVarCost.update  (pd.Series([0 for gg in model.gg if pLinearVarCost  [gg] < pEpsilon], index=[gg for gg in model.gg if pLinearVarCost  [gg] < pEpsilon]))

 #### Academic research license - for non-commercial use only #### 

9n
/lustre1/scratch/348/vsc34888/JointResearch/05.Models/06.Benchmarking/A.The_full_year_MILP
gurobi
['oSN_Main_DCOPF.py', '--case', '9n']
Namespace(case='9n', dir='/lustre1/scratch/348/vsc34888/JointResearch/05.Models/06.Benchmarking/A.The_full_year_MILP', solver='gurobi')
Namespace(case='9n', dir='/lustre1/scratch/348/vsc34888/JointResearch/05.Models/06.Benchmarking/A.The_full_year_MILP', solver='gurobi')
Reading    input data                 ...  0 s
Setting up input data                 ...  6 s
Generating objective function         ...  5 s
Generating operation & investment     ...  0 s
Generating balance                    ...  10 s
Generating storage operation          ...  0 s
Generating generation commitment      ...  8 s
Generating generation capacity        ...  3 s
Generating network    capacity        ...  11 s
Generating network    constraints     ...  34 s
Econometric analysis  constraints     ...  0 s
Set parameter Username
Set parameter TokenServer to value "SET-S-ME-LM3.luna.kuleuven.be"
Read LP format model from file /tmp/tmpgvoj58a2.pyomo.lp
Reading time = 6.33 seconds
x1: 2288835 rows, 1210279 columns, 7094266 nonzeros
Set parameter QCPDual to value 1
Set parameter LogFile to value "/lustre1/scratch/348/vsc34888/JointResearch/05.Models/06.Benchmarking/A.The_full_year_MILP/9n/openStarNet_9n.log"
Set parameter Method to value 2
Set parameter MIPFocus to value 1
Set parameter Presolve to value 2
Set parameter RINS to value 100
Set parameter MIPGap to value 0.01
Set parameter Threads to value 36
Set parameter TimeLimit to value 604800
Set parameter IterationLimit to value 760000000
Gurobi Optimizer version 9.5.0 build v9.5.0rc5 (linux64)
Thread count: 36 physical cores, 36 logical processors, using up to 36 threads
Optimize a model with 2288835 rows, 1210279 columns and 7094266 nonzeros
Model fingerprint: 0xea78b616
Variable types: 1210243 continuous, 36 integer (36 binary)
Coefficient statistics:
  Matrix range     [7e-04, 7e+01]
  Objective range  [1e+00, 1e+00]
  Bounds range     [4e-04, 2e+00]
  RHS range        [4e-04, 1e+00]
Presolve removed 742563 rows and 375652 columns (presolve time = 5s) ...
Presolve removed 742563 rows and 375652 columns (presolve time = 10s) ...
Presolve removed 742563 rows and 375652 columns (presolve time = 15s) ...
Presolve removed 742563 rows and 375652 columns
Presolve time: 15.90s
Presolved: 1546272 rows, 834627 columns, 5473407 nonzeros
Variable types: 834591 continuous, 36 integer (36 binary)
Root relaxation presolved: 1546272 rows, 834627 columns, 5473407 nonzeros

Root barrier log...

Ordering time: 0.52s

Barrier statistics:
 Dense cols : 36
 AA' NZ     : 2.081e+07
 Factor NZ  : 4.702e+07 (roughly 1.3 GB of memory)
 Factor Ops : 2.386e+09 (less than 1 second per iteration)
 Threads    : 35

                  Objective                Residual
Iter       Primal          Dual         Primal    Dual     Compl     Time
   0   3.92213297e+05 -1.99809273e+07  6.62e+00 5.96e-01  2.05e+01    33s
   1   6.05491210e+04 -5.88935790e+06  7.75e-01 1.39e-08  2.74e+00    34s
   2   1.34100757e+04 -9.30064502e+05  9.43e-03 7.37e-09  3.14e-01    34s
   3   3.19647405e+03 -2.20151914e+04  1.05e-05 1.55e-10  8.32e-03    36s
   4   9.14634654e+02 -3.52107464e+03  6.47e-09 2.22e-11  1.46e-03    37s
   5   6.29706331e+02 -1.63624592e+03  2.94e-09 9.88e-12  7.47e-04    37s
   6   4.40229490e+02 -9.64662178e+02  1.63e-09 5.44e-12  4.63e-04    38s
   7   2.98531784e+02 -5.09388803e+02  8.37e-10 2.89e-12  2.66e-04    39s
   8   1.66682907e+02 -1.94358126e+02  2.50e-10 1.40e-12  1.19e-04    40s
   9   1.43894240e+02 -4.83873800e+01  1.76e-10 1.04e-12  6.34e-05    40s
  10   1.35342248e+02 -2.32997549e+01  1.50e-10 8.81e-13  5.23e-05    41s
  11   1.14964409e+02  5.68304014e+00  8.64e-11 9.24e-13  3.60e-05    42s
  12   1.02245901e+02  2.20088337e+01  4.94e-11 1.14e-12  2.65e-05    43s
  13   9.82632272e+01  3.51768753e+01  3.78e-11 4.76e-13  2.08e-05    44s
  14   9.72561709e+01  3.66863657e+01  3.51e-11 7.32e-13  2.00e-05    45s
  15   9.36999714e+01  4.28619935e+01  2.47e-11 5.47e-13  1.68e-05    46s
  16   9.27916708e+01  5.03692478e+01  2.20e-11 3.13e-13  1.40e-05    47s
  17   9.17286188e+01  5.52726429e+01  3.11e-11 4.05e-13  1.20e-05    49s
  18   9.11979326e+01  5.58309681e+01  1.02e-10 2.77e-13  1.17e-05    50s
  19   8.98617808e+01  6.16349334e+01  2.25e-07 3.69e-13  9.31e-06    51s
  20   8.93310707e+01  6.42640826e+01  2.03e-07 5.19e-13  8.27e-06    52s
  21   8.83929751e+01  6.78353258e+01  1.71e-07 3.34e-13  6.78e-06    53s
  22   8.78107399e+01  6.99719053e+01  1.44e-07 3.52e-13  5.88e-06    54s
  23   8.73411711e+01  7.16664189e+01  1.22e-07 2.63e-13  5.17e-06    56s
  24   8.69546496e+01  7.37785691e+01  1.05e-07 7.25e-13  4.35e-06    57s
  25   8.64672358e+01  7.53965285e+01  8.28e-08 5.12e-13  3.65e-06    58s
  26   8.62650984e+01  7.60104616e+01  7.44e-08 3.06e-13  3.38e-06    59s
  27   8.60500933e+01  7.69036835e+01  6.49e-08 6.54e-13  3.02e-06    60s
  28   8.58364032e+01  7.80612303e+01  5.57e-08 3.80e-13  2.56e-06    62s
  29   8.56260068e+01  7.84466783e+01  4.73e-08 6.04e-13  2.37e-06    63s
  30   8.55614373e+01  7.86735912e+01  4.45e-08 3.62e-13  2.27e-06    64s
  31   8.53929028e+01  7.96417270e+01  3.72e-08 5.40e-13  1.90e-06    65s
  32   8.52502919e+01  8.00152935e+01  3.18e-08 4.19e-13  1.73e-06    66s
  33   8.51706951e+01  8.02505593e+01  2.87e-08 3.48e-13  1.62e-06    67s
  34   8.51012331e+01  8.05460794e+01  2.60e-08 3.20e-13  1.50e-06    68s
  35   8.50235144e+01  8.09024921e+01  2.30e-08 6.32e-13  1.36e-06    69s
  36   8.49426209e+01  8.11115834e+01  1.99e-08 6.04e-13  1.26e-06    71s
  37   8.49151893e+01  8.13608915e+01  1.89e-08 2.42e-13  1.17e-06    72s
  38   8.48436791e+01  8.16180791e+01  1.62e-08 2.24e-13  1.06e-06    73s
  39   8.48291341e+01  8.17096321e+01  1.56e-08 2.63e-13  1.03e-06    74s
  40   8.47845481e+01  8.19612955e+01  2.51e-08 4.62e-13  9.31e-07    75s
  41   8.47511116e+01  8.20655772e+01  2.43e-08 3.48e-13  8.86e-07    76s
  42   8.47156156e+01  8.21564077e+01  2.32e-08 2.56e-13  8.44e-07    77s
  43   8.46984948e+01  8.22416212e+01  2.30e-08 3.02e-13  8.10e-07    79s
  44   8.46787685e+01  8.23434825e+01  2.07e-08 3.09e-13  7.70e-07    80s
  45   8.46314859e+01  8.27632595e+01  1.84e-08 3.55e-13  6.16e-07    81s
  46   8.46085241e+01  8.28408730e+01  1.86e-08 3.77e-13  5.83e-07    82s
  47   8.45649765e+01  8.31073261e+01  1.63e-08 3.56e-12  4.81e-07    84s
  48   8.45571762e+01  8.34822824e+01  1.56e-08 2.98e-12  3.55e-07    85s
  49   8.45150476e+01  8.35988091e+01  1.21e-08 3.27e-12  3.02e-07    86s
  50   8.45014273e+01  8.36227217e+01  1.14e-08 4.06e-12  2.90e-07    88s
  51   8.44971861e+01  8.36908558e+01  1.11e-08 3.55e-12  2.66e-07    89s
  52   8.44861952e+01  8.38325579e+01  1.13e-08 1.03e-12  2.16e-07    91s
  53   8.44816753e+01  8.38681817e+01  1.13e-08 1.08e-12  2.02e-07    92s
  54   8.44757497e+01  8.39069983e+01  1.03e-08 1.37e-12  1.88e-07    94s
  55   8.44671188e+01  8.39491395e+01  9.14e-09 3.57e-12  1.71e-07    95s
  56   8.44461668e+01  8.41361642e+01  7.66e-09 6.10e-12  1.02e-07    97s
  57   8.44434592e+01  8.41905690e+01  7.16e-09 4.95e-12  8.34e-08    98s
  58   8.44356567e+01  8.42024772e+01  5.55e-09 4.89e-12  7.69e-08   100s
  59   8.44343645e+01  8.42246809e+01  5.28e-09 3.62e-12  6.92e-08   102s
  60   8.44241219e+01  8.42667343e+01  3.17e-09 3.48e-12  5.19e-08   104s
  61   8.44195298e+01  8.43234693e+01  2.33e-09 1.34e-12  3.17e-08   105s
  62   8.44154673e+01  8.43792614e+01  1.16e-09 6.00e-11  1.19e-08   106s
  63   8.44148610e+01  8.43814766e+01  1.05e-09 5.56e-11  1.10e-08   108s
  64   8.44123751e+01  8.43898439e+01  6.27e-10 3.84e-11  7.43e-09   110s
  65   8.44113233e+01  8.43982827e+01  4.41e-10 2.14e-11  4.30e-09   111s
  66   8.44089699e+01  8.44082237e+01  4.85e-09 1.08e-11  2.46e-10   111s
  67   8.44087039e+01  8.44086488e+01  9.80e-10 1.93e-12  1.82e-11   112s
  68   8.44086913e+01  8.44086913e+01  3.68e-11 1.66e-11  2.28e-15   113s

Barrier solved model in 68 iterations and 112.93 seconds (82.21 work units)
Optimal objective 8.44086913e+01


Root crossover log...

  364167 DPushes remaining with DInf 0.0000000e+00               114s
       0 DPushes remaining with DInf 0.0000000e+00               115s

   65220 PPushes remaining with PInf 0.0000000e+00               115s
       0 PPushes remaining with PInf 0.0000000e+00               119s

  Push phase complete: Pinf 0.0000000e+00, Dinf 1.7362669e-11    119s


Root simplex log...

Iteration    Objective       Primal Inf.    Dual Inf.      Time
   73672    8.4408691e+01   0.000000e+00   0.000000e+00    120s
   73672    8.4408691e+01   0.000000e+00   0.000000e+00    121s

Root relaxation: objective 8.440869e+01, 73672 iterations, 97.16 seconds (75.07 work units)

    Nodes    |    Current Node    |     Objective Bounds      |     Work
 Expl Unexpl |  Obj  Depth IntInf | Incumbent    BestBd   Gap | It/Node Time

     0     0   84.40869    0    6          -   84.40869      -     -  122s
H    0     0                     915.4684057   84.40869  90.8%     -  133s
     0     0   91.86551    0    1  915.46841   91.86551  90.0%     -  335s
H    0     0                      94.1188795   91.86551  2.39%     -  346s
     0     0   91.93122    0    1   94.11888   91.93122  2.32%     -  373s
     0     0   91.93122    0    1   94.11888   91.93122  2.32%     -  378s
     0     0   92.52013    0    3   94.11888   92.52013  1.70%     -  515s
     0     0   92.52013    0    3   94.11888   92.52013  1.70%     -  534s
     0     0   92.52013    0    1   94.11888   92.52013  1.70%     -  599s
H    0     0                      92.6657983   92.52013  0.16%     -  604s

Cutting planes:
  Gomory: 1
  MIR: 7242
  Relax-and-lift: 47

Explored 1 nodes (282589 simplex iterations) in 604.26 seconds (623.81 work units)
Thread count was 36 (of 36 available processors)

Solution count 4: 92.6658 94.1189 915.468 926.493 

Optimal solution found (tolerance 1.00e-02)
Best objective 9.266579832487e+01, best bound 9.252013428427e+01, gap 0.1572%
Termination condition:  optimal
# ==========================================================
# = Solver Results                                         =
# ==========================================================
# ----------------------------------------------------------
#   Problem Information
# ----------------------------------------------------------
Problem: 
- Name: x1
  Lower bound: 92.52013428426676
  Upper bound: 92.66579832487311
  Number of objectives: 1
  Number of constraints: 2288835
  Number of variables: 1210279
  Number of binary variables: 36
  Number of integer variables: 36
  Number of continuous variables: 1210243
  Number of nonzeros: 7094266
  Sense: minimize
# ----------------------------------------------------------
#   Solver Information
# ----------------------------------------------------------
Solver: 
- Status: ok
  Return code: 0
  Message: Model was solved to optimality (subject to tolerances), and an optimal solution is available.
  Termination condition: optimal
  Termination message: Model was solved to optimality (subject to tolerances), and an optimal solution is available.
  Wall time: 604.2930607795715
  Error rc: 0
  Time: 617.7386331558228
# ----------------------------------------------------------
#   Solution Information
# ----------------------------------------------------------
Solution: 
- number of solutions: 0
  number of solutions displayed: 0
# ============================================================================= #
# ============================================================================= #
fixing: vNetworkInvest[2030,Node_8,Node_9,cac3]
fixing: vNetworkInvest[2030,Node_6,Node_8,cac1]
fixing: vNetworkInvest[2030,Node_4,Node_9,cac3]
fixing: vNetworkInvest[2030,Node_4,Node_5,cac3]
fixing: vNetworkInvest[2030,Node_3,Node_4,cac3]
fixing: vNetworkInvest[2030,Node_3,Node_6,cac1]
fixing: vNetworkInvest[2030,Node_1,Node_6,cac2]
fixing: vNetworkInvest[2030,Node_8,Node_9,cac2]
fixing: vNetworkInvest[2030,Node_4,Node_9,cac2]
fixing: vNetworkInvest[2030,Node_6,Node_8,cac3]
fixing: vNetworkInvest[2030,Node_3,Node_4,cac2]
fixing: vNetworkInvest[2030,Node_4,Node_5,cac2]
fixing: vNetworkInvest[2030,Node_2,Node_3,cac1]
fixing: vNetworkInvest[2030,Node_4,Node_6,cac1]
fixing: vNetworkInvest[2030,Node_7,Node_8,cac1]
fixing: vNetworkInvest[2030,Node_6,Node_7,cac1]
fixing: vNetworkInvest[2030,Node_3,Node_6,cac3]
fixing: vNetworkInvest[2030,Node_6,Node_8,cac2]
fixing: vNetworkInvest[2030,Node_2,Node_6,cac1]
fixing: vNetworkInvest[2030,Node_3,Node_6,cac2]
fixing: vNetworkInvest[2030,Node_2,Node_3,cac3]
fixing: vNetworkInvest[2030,Node_4,Node_6,cac3]
fixing: vNetworkInvest[2030,Node_7,Node_8,cac3]
fixing: vNetworkInvest[2030,Node_6,Node_7,cac3]
fixing: vNetworkInvest[2030,Node_2,Node_6,cac3]
fixing: vNetworkInvest[2030,Node_1,Node_6,cac1]
fixing: vNetworkInvest[2030,Node_8,Node_9,cac1]
fixing: vNetworkInvest[2030,Node_2,Node_3,cac2]
fixing: vNetworkInvest[2030,Node_4,Node_9,cac1]
fixing: vNetworkInvest[2030,Node_4,Node_6,cac2]
fixing: vNetworkInvest[2030,Node_7,Node_8,cac2]
fixing: vNetworkInvest[2030,Node_3,Node_4,cac1]
fixing: vNetworkInvest[2030,Node_4,Node_5,cac1]
fixing: vNetworkInvest[2030,Node_6,Node_7,cac2]
fixing: vNetworkInvest[2030,Node_2,Node_6,cac2]
fixing: vNetworkInvest[2030,Node_1,Node_6,cac3]
Number of fixed variables:  36
# ============================================================================= #
# ============================================================================= #
WARNING: Implicitly replacing the Component attribute dual (type=<class
'pyomo.core.base.suffix.Suffix'>) on block 'openStarNet - Open Version of the
StartNetLite Model (Long Term Transmission Expansion Planning) - Version 1.0.0
- January 16, 2023' with a new Component (type=<class
'pyomo.core.base.suffix.Suffix'>). This is usually indicative of a modelling
error. To avoid this warning, use block.del_component() and
block.add_component().
WARNING: Implicitly replacing the Component attribute rc (type=<class
'pyomo.core.base.suffix.Suffix'>) on block 'openStarNet - Open Version of the
StartNetLite Model (Long Term Transmission Expansion Planning) - Version 1.0.0
- January 16, 2023' with a new Component (type=<class
'pyomo.core.base.suffix.Suffix'>). This is usually indicative of a modelling
error. To avoid this warning, use block.del_component() and
block.add_component().
# ==========================================================
# = Solver Results                                         =
# ==========================================================
# ----------------------------------------------------------
#   Problem Information
# ----------------------------------------------------------
Problem: 
- Name: x1
  Lower bound: 92.66579832487334
  Upper bound: 92.66579832487334
  Number of objectives: 1
  Number of constraints: 2288835
  Number of variables: 1210243
  Number of binary variables: 0
  Number of integer variables: 0
  Number of continuous variables: 1210243
  Number of nonzeros: 5836246
  Sense: minimize
# ----------------------------------------------------------
#   Solver Information
# ----------------------------------------------------------
Solver: 
- Status: ok
  Return code: 0
  Message: Model was solved to optimality (subject to tolerances), and an optimal solution is available.
  Termination condition: optimal
  Termination message: Model was solved to optimality (subject to tolerances), and an optimal solution is available.
  Wall time: 14.207105159759521
  Error rc: 0
  Time: 33.39111804962158
# ----------------------------------------------------------
#   Solution Information
# ----------------------------------------------------------
Solution: 
- number of solutions: 0
  number of solutions displayed: 0
Solving                               ...  779 s
Objective function value                   92.67 M€
Objective function value                   92.66579832487334
Writing         cost summary results  ...  0 s
Writing           investment results  ...  0 s
Writing       energy balance results  ...  20 s
Writing    network operation results  ...  4 s
Writing generation operation results  ...  5 s
Writing        ESS operation results  ...  0 s
Writing             economic results  ...  1 s

 #### Academic research license - for non-commercial use only #### 

Elapsed time: 902 seconds
